&FORCE_EVAL
METHOD QS
STRESS_TENSOR NONE
&DFT
BASIS_SET_FILE_NAME BASIS_MOLOPT
BASIS_SET_FILE_NAME BASIS_ADMM
BASIS_SET_FILE_NAME BASIS_ADMM_MOLOPT
BASIS_SET_FILE_NAME BASIS_MOLOPT-HSE06
POTENTIAL_FILE_NAME GTH_POTENTIALS
&MGRID
CUTOFF 400
&END MGRID
&QS
EPS_DEFAULT 1e-13
&END QS
&SCF
SCF_GUESS RESTART
EPS_SCF 1e-06
MAX_SCF 500
ADDED_MOS 500
CHOLESKY INVERSE
&SMEAR ON
METHOD FERMI_DIRAC
ELECTRONIC_TEMPERATURE 300
&END SMEAR
&DIAGONALIZATION
ALGORITHM STANDARD
&END DIAGONALIZATION
&MIXING
METHOD BROYDEN_MIXING
ALPHA 0.3
BETA 1.5
NBUFFER 8
&END MIXING
&END SCF
&XC
&XC_FUNCTIONAL PBE
&END XC_FUNCTIONAL
&vdW_POTENTIAL
DISPERSION_FUNCTIONAL PAIR_POTENTIAL
&PAIR_POTENTIAL
TYPE DFTD3
PARAMETER_FILE_NAME dftd3.dat
REFERENCE_FUNCTIONAL PBE
&END PAIR_POTENTIAL
&END vdW_POTENTIAL
&END XC
WFN_RESTART_FILE_NAME /data/jxzhu/2022_leiden/IntDielec/tests/workflow/test_itereleceps_full/search_hi.000005/cp2k-RESTART.wfn
&PRINT
&V_HARTREE_CUBE
ADD_LAST NUMERIC
STRIDE 8 8 1
&END V_HARTREE_CUBE
&E_DENSITY_CUBE
ADD_LAST NUMERIC
STRIDE 8 8 1
&END E_DENSITY_CUBE
&END PRINT
&POISSON
POISSON_SOLVER IMPLICIT
&IMPLICIT
BOUNDARY_CONDITIONS MIXED_PERIODIC
&DIRICHLET_BC
&AA_PLANAR
V_D 0
PARALLEL_PLANE XY
X_XTNT 0.0 11.2460
Y_XTNT 0.0 11.2460
INTERCEPT 5.0
PERIODIC_REGION .TRUE.
&END AA_PLANAR
&AA_PLANAR
V_D 11.138951728006274
PARALLEL_PLANE XY
X_XTNT 0.0 11.2460
Y_XTNT 0.0 11.2460
INTERCEPT 50.94
PERIODIC_REGION .TRUE.
&END AA_PLANAR
&END DIRICHLET_BC
&END IMPLICIT
&END POISSON
&END DFT
&SUBSYS
&TOPOLOGY
COORD_FILE_FORMAT XYZ
COORD_FILE_NAME coord.xyz
&END TOPOLOGY
&KIND O
POTENTIAL GTH-PBE-q6
BASIS_SET DZVP-MOLOPT-SR-GTH
&END KIND
&KIND H
POTENTIAL GTH-PBE-q1
BASIS_SET DZVP-MOLOPT-SR-GTH
&END KIND
&KIND Pt
POTENTIAL GTH-PBE-q10
BASIS_SET DZVP-A5-Q10-323-MOL-T1-DERIVED_SET-1
&END KIND
&KIND Ag
POTENTIAL GTH-PBE-q11
BASIS_SET DZVP-MOLOPT-SR-GTH
&END KIND
&KIND Na
POTENTIAL GTH-PBE-q9
BASIS_SET DZVP-MOLOPT-SR-GTH
&END KIND
&KIND K
POTENTIAL GTH-PBE-q9
BASIS_SET DZVP-MOLOPT-SR-GTH
&END KIND
&KIND Li
POTENTIAL GTH-PBE-q3
BASIS_SET DZVP-MOLOPT-SR-GTH
&END KIND
&KIND C
POTENTIAL GTH-PBE-q4
BASIS_SET DZVP-MOLOPT-SR-GTH
&END KIND
&KIND N
POTENTIAL GTH-PBE-q5
BASIS_SET DZVP-MOLOPT-SR-GTH
&END KIND
&KIND Cl
POTENTIAL GTH-PBE-q7
BASIS_SET DZVP-MOLOPT-SR-GTH
&END KIND
&KIND F
POTENTIAL GTH-PBE-q7
BASIS_SET DZVP-MOLOPT-SR-GTH
&END KIND
&CELL
A 11.2460 0.0000 0.0000
B 0.0000 11.2460 0.0000
C 0.0000 0.0000 55.9400
&END CELL
&END SUBSYS
&PRINT
&FORCES ON
&END FORCES
&STRESS_TENSOR OFF
&END STRESS_TENSOR
&END PRINT
&END FORCE_EVAL
&GLOBAL
PROJECT cp2k
EXTENDED_FFT_LENGTHS .TRUE.
&END GLOBAL
